Minimize
 obj: 0 X_0_1
Subject To
 out_0:
  + 1 X_0_1 + 1 X_0_2 + 1 X_0_3 + 1 X_0_4 + 1 X_0_5 + 1 X_0_6 + 1 X_0_7 + 1 X_0_8
  + 1 X_0_9
  = 1
 in_0:
  + 1 X_1_0 + 1 X_2_0 + 1 X_3_0 + 1 X_4_0 + 1 X_5_0 + 1 X_6_0 + 1 X_7_0 + 1 X_8_0
  + 1 X_9_0
  = 1
 out_1:
  + 1 X_1_0 + 1 X_1_2 + 1 X_1_3 + 1 X_1_4 + 1 X_1_5 + 1 X_1_6 + 1 X_1_7 + 1 X_1_8
  + 1 X_1_9
  = 1
 in_1:
  + 1 X_0_1 + 1 X_2_1 + 1 X_3_1 + 1 X_4_1 + 1 X_5_1 + 1 X_6_1 + 1 X_7_1 + 1 X_8_1
  + 1 X_9_1
  = 1
 out_2:
  + 1 X_2_0 + 1 X_2_1 + 1 X_2_3 + 1 X_2_4 + 1 X_2_5 + 1 X_2_6 + 1 X_2_7 + 1 X_2_8
  + 1 X_2_9
  = 1
 in_2:
  + 1 X_0_2 + 1 X_1_2 + 1 X_3_2 + 1 X_4_2 + 1 X_5_2 + 1 X_6_2 + 1 X_7_2 + 1 X_8_2
  + 1 X_9_2
  = 1
 out_3:
  + 1 X_3_0 + 1 X_3_1 + 1 X_3_2 + 1 X_3_4 + 1 X_3_5 + 1 X_3_6 + 1 X_3_7 + 1 X_3_8
  + 1 X_3_9
  = 1
 in_3:
  + 1 X_0_3 + 1 X_1_3 + 1 X_2_3 + 1 X_4_3 + 1 X_5_3 + 1 X_6_3 + 1 X_7_3 + 1 X_8_3
  + 1 X_9_3
  = 1
 out_4:
  + 1 X_4_0 + 1 X_4_1 + 1 X_4_2 + 1 X_4_3 + 1 X_4_5 + 1 X_4_6 + 1 X_4_7 + 1 X_4_8
  + 1 X_4_9
  = 1
 in_4:
  + 1 X_0_4 + 1 X_1_4 + 1 X_2_4 + 1 X_3_4 + 1 X_5_4 + 1 X_6_4 + 1 X_7_4 + 1 X_8_4
  + 1 X_9_4
  = 1
 out_5:
  + 1 X_5_0 + 1 X_5_1 + 1 X_5_2 + 1 X_5_3 + 1 X_5_4 + 1 X_5_6 + 1 X_5_7 + 1 X_5_8
  + 1 X_5_9
  = 1
 in_5:
  + 1 X_0_5 + 1 X_1_5 + 1 X_2_5 + 1 X_3_5 + 1 X_4_5 + 1 X_6_5 + 1 X_7_5 + 1 X_8_5
  + 1 X_9_5
  = 1
 out_6:
  + 1 X_6_0 + 1 X_6_1 + 1 X_6_2 + 1 X_6_3 + 1 X_6_4 + 1 X_6_5 + 1 X_6_7 + 1 X_6_8
  + 1 X_6_9
  = 1
 in_6:
  + 1 X_0_6 + 1 X_1_6 + 1 X_2_6 + 1 X_3_6 + 1 X_4_6 + 1 X_5_6 + 1 X_7_6 + 1 X_8_6
  + 1 X_9_6
  = 1
 out_7:
  + 1 X_7_0 + 1 X_7_1 + 1 X_7_2 + 1 X_7_3 + 1 X_7_4 + 1 X_7_5 + 1 X_7_6 + 1 X_7_8
  + 1 X_7_9
  = 1
 in_7:
  + 1 X_0_7 + 1 X_1_7 + 1 X_2_7 + 1 X_3_7 + 1 X_4_7 + 1 X_5_7 + 1 X_6_7 + 1 X_8_7
  + 1 X_9_7
  = 1
 out_8:
  + 1 X_8_0 + 1 X_8_1 + 1 X_8_2 + 1 X_8_3 + 1 X_8_4 + 1 X_8_5 + 1 X_8_6 + 1 X_8_7
  + 1 X_8_9
  = 1
 in_8:
  + 1 X_0_8 + 1 X_1_8 + 1 X_2_8 + 1 X_3_8 + 1 X_4_8 + 1 X_5_8 + 1 X_6_8 + 1 X_7_8
  + 1 X_9_8
  = 1
 out_9:
  + 1 X_9_0 + 1 X_9_1 + 1 X_9_2 + 1 X_9_3 + 1 X_9_4 + 1 X_9_5 + 1 X_9_6 + 1 X_9_7
  + 1 X_9_8
  = 1
 in_9:
  + 1 X_0_9 + 1 X_1_9 + 1 X_2_9 + 1 X_3_9 + 1 X_4_9 + 1 X_5_9 + 1 X_6_9 + 1 X_7_9
  + 1 X_8_9
  = 1
 mtz_1_2:
  + 1 U1 - 1 U2 + 9 X_1_2
  <= 8
 mtz_1_3:
  + 1 U1 - 1 U3 + 9 X_1_3
  <= 8
 mtz_1_4:
  + 1 U1 - 1 U4 + 9 X_1_4
  <= 8
 mtz_1_5:
  + 1 U1 - 1 U5 + 9 X_1_5
  <= 8
 mtz_1_6:
  + 1 U1 - 1 U6 + 9 X_1_6
  <= 8
 mtz_1_7:
  + 1 U1 - 1 U7 + 9 X_1_7
  <= 8
 mtz_1_8:
  + 1 U1 - 1 U8 + 9 X_1_8
  <= 8
 mtz_1_9:
  + 1 U1 - 1 U9 + 9 X_1_9
  <= 8
 mtz_2_1:
  + 1 U2 - 1 U1 + 9 X_2_1
  <= 8
 mtz_2_3:
  + 1 U2 - 1 U3 + 9 X_2_3
  <= 8
 mtz_2_4:
  + 1 U2 - 1 U4 + 9 X_2_4
  <= 8
 mtz_2_5:
  + 1 U2 - 1 U5 + 9 X_2_5
  <= 8
 mtz_2_6:
  + 1 U2 - 1 U6 + 9 X_2_6
  <= 8
 mtz_2_7:
  + 1 U2 - 1 U7 + 9 X_2_7
  <= 8
 mtz_2_8:
  + 1 U2 - 1 U8 + 9 X_2_8
  <= 8
 mtz_2_9:
  + 1 U2 - 1 U9 + 9 X_2_9
  <= 8
 mtz_3_1:
  + 1 U3 - 1 U1 + 9 X_3_1
  <= 8
 mtz_3_2:
  + 1 U3 - 1 U2 + 9 X_3_2
  <= 8
 mtz_3_4:
  + 1 U3 - 1 U4 + 9 X_3_4
  <= 8
 mtz_3_5:
  + 1 U3 - 1 U5 + 9 X_3_5
  <= 8
 mtz_3_6:
  + 1 U3 - 1 U6 + 9 X_3_6
  <= 8
 mtz_3_7:
  + 1 U3 - 1 U7 + 9 X_3_7
  <= 8
 mtz_3_8:
  + 1 U3 - 1 U8 + 9 X_3_8
  <= 8
 mtz_3_9:
  + 1 U3 - 1 U9 + 9 X_3_9
  <= 8
 mtz_4_1:
  + 1 U4 - 1 U1 + 9 X_4_1
  <= 8
 mtz_4_2:
  + 1 U4 - 1 U2 + 9 X_4_2
  <= 8
 mtz_4_3:
  + 1 U4 - 1 U3 + 9 X_4_3
  <= 8
 mtz_4_5:
  + 1 U4 - 1 U5 + 9 X_4_5
  <= 8
 mtz_4_6:
  + 1 U4 - 1 U6 + 9 X_4_6
  <= 8
 mtz_4_7:
  + 1 U4 - 1 U7 + 9 X_4_7
  <= 8
 mtz_4_8:
  + 1 U4 - 1 U8 + 9 X_4_8
  <= 8
 mtz_4_9:
  + 1 U4 - 1 U9 + 9 X_4_9
  <= 8
 mtz_5_1:
  + 1 U5 - 1 U1 + 9 X_5_1
  <= 8
 mtz_5_2:
  + 1 U5 - 1 U2 + 9 X_5_2
  <= 8
 mtz_5_3:
  + 1 U5 - 1 U3 + 9 X_5_3
  <= 8
 mtz_5_4:
  + 1 U5 - 1 U4 + 9 X_5_4
  <= 8
 mtz_5_6:
  + 1 U5 - 1 U6 + 9 X_5_6
  <= 8
 mtz_5_7:
  + 1 U5 - 1 U7 + 9 X_5_7
  <= 8
 mtz_5_8:
  + 1 U5 - 1 U8 + 9 X_5_8
  <= 8
 mtz_5_9:
  + 1 U5 - 1 U9 + 9 X_5_9
  <= 8
 mtz_6_1:
  + 1 U6 - 1 U1 + 9 X_6_1
  <= 8
 mtz_6_2:
  + 1 U6 - 1 U2 + 9 X_6_2
  <= 8
 mtz_6_3:
  + 1 U6 - 1 U3 + 9 X_6_3
  <= 8
 mtz_6_4:
  + 1 U6 - 1 U4 + 9 X_6_4
  <= 8
 mtz_6_5:
  + 1 U6 - 1 U5 + 9 X_6_5
  <= 8
 mtz_6_7:
  + 1 U6 - 1 U7 + 9 X_6_7
  <= 8
 mtz_6_8:
  + 1 U6 - 1 U8 + 9 X_6_8
  <= 8
 mtz_6_9:
  + 1 U6 - 1 U9 + 9 X_6_9
  <= 8
 mtz_7_1:
  + 1 U7 - 1 U1 + 9 X_7_1
  <= 8
 mtz_7_2:
  + 1 U7 - 1 U2 + 9 X_7_2
  <= 8
 mtz_7_3:
  + 1 U7 - 1 U3 + 9 X_7_3
  <= 8
 mtz_7_4:
  + 1 U7 - 1 U4 + 9 X_7_4
  <= 8
 mtz_7_5:
  + 1 U7 - 1 U5 + 9 X_7_5
  <= 8
 mtz_7_6:
  + 1 U7 - 1 U6 + 9 X_7_6
  <= 8
 mtz_7_8:
  + 1 U7 - 1 U8 + 9 X_7_8
  <= 8
 mtz_7_9:
  + 1 U7 - 1 U9 + 9 X_7_9
  <= 8
 mtz_8_1:
  + 1 U8 - 1 U1 + 9 X_8_1
  <= 8
 mtz_8_2:
  + 1 U8 - 1 U2 + 9 X_8_2
  <= 8
 mtz_8_3:
  + 1 U8 - 1 U3 + 9 X_8_3
  <= 8
 mtz_8_4:
  + 1 U8 - 1 U4 + 9 X_8_4
  <= 8
 mtz_8_5:
  + 1 U8 - 1 U5 + 9 X_8_5
  <= 8
 mtz_8_6:
  + 1 U8 - 1 U6 + 9 X_8_6
  <= 8
 mtz_8_7:
  + 1 U8 - 1 U7 + 9 X_8_7
  <= 8
 mtz_8_9:
  + 1 U8 - 1 U9 + 9 X_8_9
  <= 8
 mtz_9_1:
  + 1 U9 - 1 U1 + 9 X_9_1
  <= 8
 mtz_9_2:
  + 1 U9 - 1 U2 + 9 X_9_2
  <= 8
 mtz_9_3:
  + 1 U9 - 1 U3 + 9 X_9_3
  <= 8
 mtz_9_4:
  + 1 U9 - 1 U4 + 9 X_9_4
  <= 8
 mtz_9_5:
  + 1 U9 - 1 U5 + 9 X_9_5
  <= 8
 mtz_9_6:
  + 1 U9 - 1 U6 + 9 X_9_6
  <= 8
 mtz_9_7:
  + 1 U9 - 1 U7 + 9 X_9_7
  <= 8
 mtz_9_8:
  + 1 U9 - 1 U8 + 9 X_9_8
  <= 8
 obj1:
  + 672 X_0_1 + 695 X_0_2 + 432 X_0_3 + 145 X_0_4 + 945 X_0_5 + 477 X_0_6 + 497 X_0_7 + 457 X_0_8
  + 461 X_0_9 + 672 X_1_0 + 550 X_1_2 + 821 X_1_3 + 814 X_1_4 + 787 X_1_5 + 985 X_1_6 + 1035 X_1_7
  + 238 X_1_8 + 632 X_1_9 + 695 X_2_0 + 550 X_2_1 + 503 X_2_3 + 819 X_2_4 + 273 X_2_5 + 693 X_2_6
  + 753 X_2_7 + 595 X_2_8 + 290 X_2_9 + 432 X_3_0 + 821 X_3_1 + 503 X_3_2 + 478 X_3_4 + 663 X_3_5
  + 190 X_3_6 + 250 X_3_7 + 701 X_3_8 + 223 X_3_9 + 145 X_4_0 + 814 X_4_1 + 819 X_4_2 + 478 X_4_3
  + 1058 X_4_5 + 464 X_4_6 + 466 X_4_7 + 593 X_4_8 + 562 X_4_9 + 945 X_5_0 + 787 X_5_1 + 273 X_5_2
  + 663 X_5_3 + 1058 X_5_4 + 834 X_5_6 + 893 X_5_7 + 864 X_5_8 + 497 X_5_9 + 477 X_6_0 + 985 X_6_1
  + 693 X_6_2 + 190 X_6_3 + 464 X_6_4 + 834 X_6_5 + 60 X_6_7 + 838 X_6_8 + 413 X_6_9 + 497 X_7_0
  + 1035 X_7_1 + 753 X_7_2 + 250 X_7_3 + 466 X_7_4 + 893 X_7_5 + 60 X_7_6 + 880 X_7_8 + 473 X_7_9
  + 457 X_8_0 + 238 X_8_1 + 595 X_8_2 + 701 X_8_3 + 593 X_8_4 + 864 X_8_5 + 838 X_8_6 + 880 X_8_7
  + 560 X_8_9 + 461 X_9_0 + 632 X_9_1 + 290 X_9_2 + 223 X_9_3 + 562 X_9_4 + 497 X_9_5 + 413 X_9_6
  + 473 X_9_7 + 560 X_9_8
  <= 1
 obj2:
  + 474 X_0_1 + 438 X_0_2 + 386 X_0_3 + 319 X_0_4 + 513 X_0_5 + 146 X_0_6 + 565 X_0_7 + 283 X_0_8
  + 211 X_0_9 + 474 X_1_0 + 897 X_1_2 + 464 X_1_3 + 763 X_1_4 + 283 X_1_5 + 534 X_1_6 + 202 X_1_7
  + 571 X_1_8 + 469 X_1_9 + 438 X_2_0 + 897 X_2_1 + 764 X_2_3 + 353 X_2_4 + 850 X_2_5 + 470 X_2_6
  + 943 X_2_7 + 409 X_2_8 + 584 X_2_9 + 386 X_3_0 + 464 X_3_1 + 764 X_3_2 + 470 X_3_4 + 681 X_3_5
  + 295 X_3_6 + 653 X_3_7 + 659 X_3_8 + 184 X_3_9 + 319 X_4_0 + 763 X_4_1 + 353 X_4_2 + 470 X_4_3
  + 833 X_4_5 + 229 X_4_6 + 880 X_4_7 + 517 X_4_8 + 322 X_4_9 + 513 X_5_0 + 283 X_5_1 + 850 X_5_2
  + 681 X_5_3 + 833 X_5_4 + 631 X_5_6 + 133 X_5_7 + 453 X_5_8 + 615 X_5_9 + 146 X_6_0 + 534 X_6_1
  + 470 X_6_2 + 295 X_6_3 + 229 X_6_4 + 631 X_6_5 + 663 X_6_7 + 422 X_6_8 + 114 X_6_9 + 565 X_7_0
  + 202 X_7_1 + 943 X_7_2 + 653 X_7_3 + 880 X_7_4 + 133 X_7_5 + 663 X_7_6 + 561 X_7_8 + 624 X_7_9
  + 283 X_8_0 + 571 X_8_1 + 409 X_8_2 + 659 X_8_3 + 517 X_8_4 + 453 X_8_5 + 422 X_8_6 + 561 X_8_7
  + 493 X_8_9 + 211 X_9_0 + 469 X_9_1 + 584 X_9_2 + 184 X_9_3 + 322 X_9_4 + 615 X_9_5 + 114 X_9_6
  + 624 X_9_7 + 493 X_9_8
  <= 2
 obj3:
  + 930 X_0_1 + 641 X_0_2 + 970 X_0_3 + 939 X_0_4 + 423 X_0_5 + 791 X_0_6 + 403 X_0_7 + 227 X_0_8
  + 828 X_0_9 + 930 X_1_0 + 363 X_1_2 + 360 X_1_3 + 94 X_1_4 + 721 X_1_5 + 156 X_1_6 + 777 X_1_7
  + 703 X_1_8 + 303 X_1_9 + 641 X_2_0 + 363 X_2_1 + 336 X_2_3 + 331 X_2_4 + 598 X_2_5 + 301 X_2_6
  + 643 X_2_7 + 436 X_2_8 + 478 X_2_9 + 970 X_3_0 + 360 X_3_1 + 336 X_3_2 + 267 X_3_4 + 916 X_3_5
  + 439 X_3_6 + 965 X_3_7 + 772 X_3_8 + 636 X_3_9 + 939 X_4_0 + 94 X_4_1 + 331 X_4_2 + 267 X_4_3
  + 771 X_4_5 + 216 X_4_6 + 826 X_4_7 + 716 X_4_8 + 390 X_4_9 + 423 X_5_0 + 721 X_5_1 + 598 X_5_2
  + 916 X_5_3 + 771 X_5_4 + 565 X_5_6 + 56 X_5_7 + 303 X_5_8 + 505 X_5_9 + 791 X_6_0 + 156 X_6_1
  + 301 X_6_2 + 439 X_6_3 + 216 X_6_4 + 565 X_6_5 + 621 X_6_7 + 563 X_6_8 + 201 X_6_9 + 403 X_7_0
  + 777 X_7_1 + 643 X_7_2 + 965 X_7_3 + 826 X_7_4 + 56 X_7_5 + 621 X_7_6 + 315 X_7_8 + 560 X_7_9
  + 227 X_8_0 + 703 X_8_1 + 436 X_8_2 + 772 X_8_3 + 716 X_8_4 + 303 X_8_5 + 563 X_8_6 + 315 X_8_7
  + 610 X_8_9 + 828 X_9_0 + 303 X_9_1 + 478 X_9_2 + 636 X_9_3 + 390 X_9_4 + 505 X_9_5 + 201 X_9_6
  + 560 X_9_7 + 610 X_9_8
  <= 3
 obj4:
  + 492 X_0_1 + 711 X_0_2 + 250 X_0_3 + 674 X_0_4 + 697 X_0_5 + 83 X_0_6 + 332 X_0_7 + 645 X_0_8
  + 538 X_0_9 + 492 X_1_0 + 502 X_1_2 + 429 X_1_3 + 190 X_1_4 + 430 X_1_5 + 432 X_1_6 + 704 X_1_7
  + 476 X_1_8 + 105 X_1_9 + 711 X_2_0 + 502 X_2_1 + 815 X_2_3 + 467 X_2_4 + 90 X_2_5 + 627 X_2_6
  + 680 X_2_7 + 70 X_2_8 + 405 X_2_9 + 250 X_3_0 + 429 X_3_1 + 815 X_3_2 + 618 X_3_4 + 774 X_3_5
  + 279 X_3_6 + 582 X_3_7 + 761 X_3_8 + 515 X_3_9 + 674 X_4_0 + 190 X_4_1 + 467 X_4_2 + 618 X_4_3
  + 379 X_4_5 + 607 X_4_6 + 848 X_4_7 + 468 X_4_8 + 145 X_4_9 + 697 X_5_0 + 430 X_5_1 + 90 X_5_2
  + 774 X_5_3 + 379 X_5_4 + 613 X_5_6 + 708 X_5_7 + 122 X_5_8 + 328 X_5_9 + 83 X_6_0 + 432 X_6_1
  + 627 X_6_2 + 279 X_6_3 + 607 X_6_4 + 613 X_6_5 + 321 X_6_7 + 562 X_6_8 + 467 X_6_9 + 332 X_7_0
  + 704 X_7_1 + 680 X_7_2 + 582 X_7_3 + 848 X_7_4 + 708 X_7_5 + 321 X_7_6 + 609 X_7_8 + 703 X_7_9
  + 645 X_8_0 + 476 X_8_1 + 70 X_8_2 + 761 X_8_3 + 468 X_8_4 + 122 X_8_5 + 562 X_8_6 + 609 X_8_7
  + 385 X_8_9 + 538 X_9_0 + 105 X_9_1 + 405 X_9_2 + 515 X_9_3 + 145 X_9_4 + 328 X_9_5 + 467 X_9_6
  + 703 X_9_7 + 385 X_9_8
  <= 4
 obj5:
  + 617 X_0_1 + 185 X_0_2 + 335 X_0_3 + 325 X_0_4 + 508 X_0_5 + 435 X_0_6 + 238 X_0_7 + 232 X_0_8
  + 460 X_0_9 + 617 X_1_0 + 432 X_1_2 + 688 X_1_3 + 868 X_1_4 + 217 X_1_5 + 621 X_1_6 + 836 X_1_7
  + 757 X_1_8 + 414 X_1_9 + 185 X_2_0 + 432 X_2_1 + 367 X_2_3 + 465 X_2_4 + 335 X_2_5 + 418 X_2_6
  + 414 X_2_7 + 356 X_2_8 + 353 X_2_9 + 335 X_3_0 + 688 X_3_1 + 367 X_3_2 + 249 X_3_4 + 492 X_3_5
  + 755 X_3_6 + 499 X_3_7 + 183 X_3_8 + 721 X_3_9 + 325 X_4_0 + 868 X_4_1 + 465 X_4_2 + 249 X_4_3
  + 700 X_4_5 + 748 X_4_6 + 353 X_4_7 + 111 X_4_8 + 784 X_4_9 + 508 X_5_0 + 217 X_5_1 + 335 X_5_2
  + 492 X_5_3 + 700 X_5_4 + 665 X_5_6 + 745 X_5_7 + 593 X_5_8 + 496 X_5_9 + 435 X_6_0 + 621 X_6_1
  + 418 X_6_2 + 755 X_6_3 + 748 X_6_4 + 665 X_6_5 + 469 X_6_7 + 666 X_6_8 + 216 X_6_9 + 238 X_7_0
  + 836 X_7_1 + 414 X_7_2 + 499 X_7_3 + 353 X_7_4 + 745 X_7_5 + 469 X_7_6 + 328 X_7_8 + 587 X_7_9
  + 232 X_8_0 + 757 X_8_1 + 356 X_8_2 + 183 X_8_3 + 111 X_8_4 + 593 X_8_5 + 666 X_8_6 + 328 X_8_7
  + 684 X_8_9 + 460 X_9_0 + 414 X_9_1 + 353 X_9_2 + 721 X_9_3 + 784 X_9_4 + 496 X_9_5 + 216 X_9_6
  + 587 X_9_7 + 684 X_9_8
  <= 5
 obj6:
  + 724 X_0_1 + 513 X_0_2 + 420 X_0_3 + 827 X_0_4 + 909 X_0_5 + 213 X_0_6 + 624 X_0_7 + 795 X_0_8
  + 1142 X_0_9 + 724 X_1_0 + 690 X_1_2 + 304 X_1_3 + 527 X_1_4 + 254 X_1_5 + 534 X_1_6 + 101 X_1_7
  + 427 X_1_8 + 471 X_1_9 + 513 X_2_0 + 690 X_2_1 + 520 X_2_3 + 430 X_2_4 + 943 X_2_5 + 550 X_2_6
  + 635 X_2_7 + 1001 X_2_8 + 915 X_2_9 + 420 X_3_0 + 304 X_3_1 + 520 X_3_2 + 578 X_3_4 + 502 X_3_5
  + 234 X_3_6 + 204 X_3_7 + 483 X_3_8 + 745 X_3_9 + 827 X_4_0 + 527 X_4_1 + 430 X_4_2 + 578 X_4_3
  + 757 X_4_5 + 751 X_4_6 + 541 X_4_7 + 945 X_4_8 + 530 X_4_9 + 909 X_5_0 + 254 X_5_1 + 943 X_5_2
  + 502 X_5_3 + 757 X_5_4 + 700 X_5_6 + 316 X_5_7 + 313 X_5_8 + 516 X_5_9 + 213 X_6_0 + 534 X_6_1
  + 550 X_6_2 + 234 X_6_3 + 751 X_6_4 + 700 X_6_5 + 432 X_6_7 + 585 X_6_8 + 979 X_6_9 + 624 X_7_0
  + 101 X_7_1 + 635 X_7_2 + 204 X_7_3 + 541 X_7_4 + 316 X_7_5 + 432 X_7_6 + 406 X_7_8 + 565 X_7_9
  + 795 X_8_0 + 427 X_8_1 + 1001 X_8_2 + 483 X_8_3 + 945 X_8_4 + 313 X_8_5 + 585 X_8_6 + 406 X_8_7
  + 820 X_8_9 + 1142 X_9_0 + 471 X_9_1 + 915 X_9_2 + 745 X_9_3 + 530 X_9_4 + 516 X_9_5 + 979 X_9_6
  + 565 X_9_7 + 820 X_9_8
  <= 6
 obj7:
  + 767 X_0_1 + 266 X_0_2 + 577 X_0_3 + 508 X_0_4 + 148 X_0_5 + 680 X_0_6 + 162 X_0_7 + 182 X_0_8
  + 190 X_0_9 + 767 X_1_0 + 595 X_1_2 + 210 X_1_3 + 281 X_1_4 + 763 X_1_5 + 176 X_1_6 + 728 X_1_7
  + 709 X_1_8 + 859 X_1_9 + 266 X_2_0 + 595 X_2_1 + 385 X_2_3 + 314 X_2_4 + 371 X_2_5 + 466 X_2_6
  + 145 X_2_7 + 362 X_2_8 + 272 X_2_9 + 577 X_3_0 + 210 X_3_1 + 385 X_3_2 + 72 X_3_4 + 598 X_3_5
  + 113 X_3_6 + 521 X_3_7 + 550 X_3_8 + 652 X_3_9 + 508 X_4_0 + 281 X_4_1 + 314 X_4_2 + 72 X_4_3
  + 537 X_4_5 + 173 X_4_6 + 449 X_4_7 + 492 X_4_8 + 580 X_4_9 + 148 X_5_0 + 763 X_5_1 + 371 X_5_2
  + 598 X_5_3 + 537 X_5_4 + 709 X_5_6 + 302 X_5_7 + 62 X_5_8 + 335 X_5_9 + 680 X_6_0 + 176 X_6_1
  + 466 X_6_2 + 113 X_6_3 + 173 X_6_4 + 709 X_6_5 + 609 X_6_7 + 663 X_6_8 + 738 X_6_9 + 162 X_7_0
  + 728 X_7_1 + 145 X_7_2 + 521 X_7_3 + 449 X_7_4 + 302 X_7_5 + 609 X_7_6 + 319 X_7_8 + 130 X_7_9
  + 182 X_8_0 + 709 X_8_1 + 362 X_8_2 + 550 X_8_3 + 492 X_8_4 + 62 X_8_5 + 663 X_8_6 + 319 X_8_7
  + 372 X_8_9 + 190 X_9_0 + 859 X_9_1 + 272 X_9_2 + 652 X_9_3 + 580 X_9_4 + 335 X_9_5 + 738 X_9_6
  + 130 X_9_7 + 372 X_9_8
  <= 7
Bounds
 1 <= U1 <= 9
 1 <= U2 <= 9
 1 <= U3 <= 9
 1 <= U4 <= 9
 1 <= U5 <= 9
 1 <= U6 <= 9
 1 <= U7 <= 9
 1 <= U8 <= 9
 1 <= U9 <= 9
Binary
 X_0_1
 X_0_2
 X_0_3
 X_0_4
 X_0_5
 X_0_6
 X_0_7
 X_0_8
 X_0_9
 X_1_0
 X_1_2
 X_1_3
 X_1_4
 X_1_5
 X_1_6
 X_1_7
 X_1_8
 X_1_9
 X_2_0
 X_2_1
 X_2_3
 X_2_4
 X_2_5
 X_2_6
 X_2_7
 X_2_8
 X_2_9
 X_3_0
 X_3_1
 X_3_2
 X_3_4
 X_3_5
 X_3_6
 X_3_7
 X_3_8
 X_3_9
 X_4_0
 X_4_1
 X_4_2
 X_4_3
 X_4_5
 X_4_6
 X_4_7
 X_4_8
 X_4_9
 X_5_0
 X_5_1
 X_5_2
 X_5_3
 X_5_4
 X_5_6
 X_5_7
 X_5_8
 X_5_9
 X_6_0
 X_6_1
 X_6_2
 X_6_3
 X_6_4
 X_6_5
 X_6_7
 X_6_8
 X_6_9
 X_7_0
 X_7_1
 X_7_2
 X_7_3
 X_7_4
 X_7_5
 X_7_6
 X_7_8
 X_7_9
 X_8_0
 X_8_1
 X_8_2
 X_8_3
 X_8_4
 X_8_5
 X_8_6
 X_8_7
 X_8_9
 X_9_0
 X_9_1
 X_9_2
 X_9_3
 X_9_4
 X_9_5
 X_9_6
 X_9_7
 X_9_8
End
